c status 9 1469387596928
c status 8 1469387596928
c status 7 1469387596929
s td 10 7 16
b 1 15 9 1 5 7
b 2 9 2 1 10 3 5 7
b 3 2 1 10 16 3 5 7
b 4 14 8 1 13 5
b 5 8 6 1 10 13 3 5
b 6 6 1 10 16 13 3 5
b 7 1 10 16 13 3 5 7
b 8 12 11 13 5 7
b 9 11 4 10 13 3 5 7
b 10 4 10 16 13 3 5 7
1 2
2 3
3 7
7 6
7 10
6 5
10 9
9 8
5 4
